Running MiniSat on FULL_RUN_MINISAT\7f7109dce621ef361a72b3e8cee9a962-Break_unsat_06_07.xml.cnf... 
============================[ Problem Statistics ]=============================
|                                                                             |
|  Number of variables:          1101                                         |
|  Number of clauses:            5036                                         |
|  Parse time:                   0.03 s                                       |
|                                                                             |
============================[ Search Statistics ]==============================
| Conflicts |          ORIGINAL         |          LEARNT          | Progress |
|           |    Vars  Clauses Literals |    Limit  Clauses Lit/Cl |          |
===============================================================================
|       100 |    1076     5013    11648 |     1838       99     28 |  2.271 % |
|       250 |    1076     5011    11644 |     2021      249     24 |  2.271 % |
|       475 |    1076     5011    11644 |     2224      474     30 |  2.271 % |
|       812 |    1076     5011    11644 |     2446      811     26 |  2.271 % |
|      1318 |    1076     5011    11644 |     2691     1317     26 |  2.271 % |
|      2077 |    1076     5011    11644 |     2960     2076     22 |  2.271 % |
|      3216 |    1076     5011    11644 |     3256     1682     13 |  2.271 % |
|      4924 |    1076     5011    11644 |     3581     1747     12 |  2.271 % |
|      7486 |    1076     5011    11644 |     3940     2476     12 |  2.271 % |
|     11330 |    1076     5011    11644 |     4334     2259     12 |  2.271 % |
|     17096 |    1076     5011    11644 |     4767     3576     13 |  2.271 % |
|     25745 |    1076     5011    11644 |     5244     2510     12 |  2.271 % |
|     38719 |    1076     5011    11644 |     5768     4775     12 |  2.271 % |
===============================================================================
restarts              : 148
conflicts             : 48798          (15089 /sec)
decisions             : 61168          (0.00 % random) (18914 /sec)
propagations          : 6658126        (2058790 /sec)
conflict literals     : 642264         (41.12 % deleted)
CPU time              : 3.234 s

UNSATISFIABLE
UNSAT
Finished MiniSat on FULL_RUN_MINISAT\7f7109dce621ef361a72b3e8cee9a962-Break_unsat_06_07.xml.cnf